data;


param d:= 100;
param r:=5;
param p:=0.600000;
param M:=1000;
param U:=
         1         1        5.442106e-01
         2         1       -1.268925e+00
         3         1        2.038340e+00
         4         1        1.457011e-01
         5         1       -3.332303e-01
         6         1        1.941897e-01
         7         1       -9.396392e-02
         8         1        2.541301e-01
         9         1       -1.141077e+00
        10         1       -1.814916e+00
        11         1        4.128604e-02
        12         1       -3.291045e-02
        13         1       -3.802319e-01
        14         1        4.640242e-01
        15         1       -1.909512e+00
        16         1       -2.075775e+00
        17         1       -7.495014e-01
        18         1       -1.593009e+00
        19         1       -5.314317e-01
        20         1        1.196330e+00
        21         1       -2.281615e+00
        22         1        4.293222e-02
        23         1       -5.058464e-01
        24         1        2.150641e-01
        25         1        3.304378e-01
        26         1        1.681935e+00
        27         1        1.105245e-01
        28         1       -8.167092e-01
        29         1       -2.795712e-02
        30         1       -9.495216e-01
        31         1        1.374488e+00
        32         1       -3.120109e-01
        33         1        1.321979e-02
        34         1        1.510062e+00
        35         1        3.214200e-01
        36         1        9.274664e-01
        37         1       -1.522177e+00
        38         1       -1.109777e+00
        39         1       -8.699328e-01
        40         1        1.526568e+00
        41         1        5.133945e-01
        42         1       -8.812776e-01
        43         1        1.576935e+00
        44         1        6.826871e-02
        45         1       -1.899431e+00
        46         1        2.339234e-01
        47         1       -5.964620e-01
        48         1       -3.160594e-01
        49         1        1.096519e+00
        50         1        1.249730e+00
        51         1       -2.729675e-03
        52         1       -3.347441e-01
        53         1       -1.282196e-01
        54         1        1.313855e+00
        55         1       -3.392203e-01
        56         1       -1.144252e-02
        57         1       -2.797789e-01
        58         1        1.305825e+00
        59         1       -1.918187e-01
        60         1       -9.454777e-02
        61         1        5.972539e-01
        62         1       -5.226505e-01
        63         1        2.539596e-01
        64         1        3.672595e-01
        65         1        1.087842e+00
        66         1        1.550330e+00
        67         1       -1.530044e+00
        68         1        1.473715e+00
        69         1        1.922074e-02
        70         1       -2.005339e+00
        71         1       -5.717252e-01
        72         1        1.617784e-02
        73         1       -4.632066e-01
        74         1        8.420646e-01
        75         1       -2.050467e+00
        76         1        8.365448e-01
        77         1        1.396675e+00
        78         1       -1.588722e+00
        79         1       -7.060644e-01
        80         1        7.619562e-01
        81         1        2.113844e+00
        82         1        3.180578e-02
        83         1       -1.391558e+00
        84         1        1.036825e+00
        85         1        7.717275e-01
        86         1       -9.958034e-01
        87         1       -1.116575e+00
        88         1        3.490436e-01
        89         1       -7.210596e-01
        90         1        1.625297e+00
        91         1        2.589557e+00
        92         1        6.391662e-01
        93         1       -1.459559e-01
        94         1        1.251712e-01
        95         1       -1.713532e+00
        96         1       -3.528020e+00
        97         1        6.651871e-01
        98         1        4.870670e-01
        99         1        1.106286e-01
       100         1       -1.037515e+00
         1         2       -1.842442e+00
         2         2       -1.275731e+00
         3         2       -2.261202e-01
         4         2        4.959660e-01
         5         2        3.170796e-01
         6         2        1.051536e+00
         7         2        1.064233e+00
         8         2        3.201624e-01
         9         2        4.142994e-01
        10         2       -4.523046e-01
        11         2        2.265857e-02
        12         2        1.277208e-01
        13         2        3.610408e-01
        14         2        1.900406e+00
        15         2       -1.383461e-01
        16         2        1.122047e+00
        17         2       -8.981296e-01
        18         2       -3.198895e-01
        19         2        1.829686e+00
        20         2       -4.239941e-01
        21         2        6.307132e-01
        22         2       -1.076749e+00
        23         2       -1.333337e+00
        24         2        6.366361e-01
        25         2       -1.303789e-01
        26         2        5.538658e-01
        27         2        1.120929e+00
        28         2        1.825083e+00
        29         2        9.595321e-01
        30         2        1.458720e+00
        31         2       -5.499453e-01
        32         2        3.869545e-01
        33         2       -6.962787e-01
        34         2       -6.503090e-01
        35         2       -5.621116e-01
        36         2        4.700776e-01
        37         2        1.962066e-01
        38         2        1.080847e+00
        39         2        3.514188e-01
        40         2       -1.475317e+00
        41         2       -1.177491e+00
        42         2        1.166561e+00
        43         2       -7.658764e-01
        44         2       -1.781557e+00
        45         2        7.715940e-01
        46         2        9.442953e-01
        47         2       -2.932717e-01
        48         2       -1.789619e-01
        49         2       -1.035536e+00
        50         2       -7.631101e-01
        51         2       -5.984455e-03
        52         2       -6.748806e-01
        53         2        3.958967e-01
        54         2        3.081208e-01
        55         2       -2.295934e-01
        56         2        4.408758e-01
        57         2       -7.067959e-01
        58         2        6.257366e-01
        59         2       -5.935863e-01
        60         2        1.176956e+00
        61         2       -1.296264e+00
        62         2        7.729964e-01
        63         2        8.435943e-01
        64         2        2.569736e-01
        65         2        1.185173e+00
        66         2        7.221386e-01
        67         2        8.584141e-01
        68         2       -1.568729e+00
        69         2        5.933121e-02
        70         2        1.982381e+00
        71         2        1.466634e+00
        72         2       -3.909927e-01
        73         2       -1.492699e+00
        74         2       -8.395441e-02
        75         2        1.050766e-01
        76         2        2.661090e-01
        77         2        7.765286e-01
        78         2        9.337380e-01
        79         2        9.033673e-01
        80         2       -3.659458e-01
        81         2       -4.344362e-01
        82         2       -8.613287e-01
        83         2       -4.793894e-01
        84         2       -7.332629e-01
        85         2        8.445904e-01
        86         2        1.058472e+00
        87         2       -5.253082e-01
        88         2        2.425643e-01
        89         2        8.761367e-01
        90         2        1.188169e+00
        91         2       -8.750218e-01
        92         2        2.268441e-01
        93         2       -1.229210e-01
        94         2        1.856332e+00
        95         2        7.829840e-01
        96         2        6.887118e-01
        97         2        2.628901e+00
        98         2       -5.776663e-01
        99         2       -9.057595e-01
       100         2        9.277841e-01
         1         3       -1.046766e+00
         2         3        8.431029e-02
         3         3       -1.221672e+00
         4         3       -5.165437e-01
         5         3       -1.168523e+00
         6         3        7.537532e-01
         7         3        6.030988e-01
         8         3       -3.812506e-01
         9         3       -1.597165e-01
        10         3       -4.614016e-01
        11         3       -1.680052e-01
        12         3       -1.677205e-02
        13         3       -5.735713e-04
        14         3        4.832182e-01
        15         3        8.709445e-03
        16         3        1.801657e+00
        17         3        1.162917e+00
        18         3       -9.139348e-01
        19         3        7.008921e-01
        20         3       -1.121480e+00
        21         3        2.274900e-01
        22         3        1.304931e+00
        23         3       -8.018262e-01
        24         3       -1.006307e+00
        25         3       -2.095626e+00
        26         3       -9.287904e-01
        27         3       -5.415400e-01
        28         3       -1.458387e+00
        29         3        1.365494e+00
        30         3       -1.129642e+00
        31         3       -7.432912e-01
        32         3        1.936482e+00
        33         3        1.652732e+00
        34         3        1.555602e-01
        35         3        2.829099e-01
        36         3        9.365094e-01
        37         3        2.531259e-01
        38         3        1.008623e+00
        39         3        2.444138e-02
        40         3        1.134603e+00
        41         3       -9.572357e-01
        42         3        7.505923e-01
        43         3       -6.183958e-01
        44         3        6.654494e-01
        45         3       -1.633188e+00
        46         3       -3.207889e-01
        47         3        4.092336e-01
        48         3        3.457072e-01
        49         3       -7.075683e-01
        50         3       -2.557765e+00
        51         3        7.331443e-01
        52         3       -8.513529e-01
        53         3       -7.805344e-01
        54         3       -6.767697e-01
        55         3        7.148691e-01
        56         3       -1.263051e+00
        57         3       -1.999963e+00
        58         3        9.207020e-01
        59         3       -1.277908e+00
        60         3       -2.058119e+00
        61         3       -2.952437e-01
        62         3       -1.439694e+00
        63         3        7.058487e-01
        64         3        3.583091e-01
        65         3       -1.258627e+00
        66         3       -1.205460e+00
        67         3       -4.419858e-02
        68         3        1.448602e+00
        69         3       -3.133062e-01
        70         3       -1.254659e+00
        71         3        8.893572e-01
        72         3       -6.491901e-01
        73         3        1.758471e+00
        74         3       -2.681976e+00
        75         3        4.467789e-01
        76         3        1.562144e+00
        77         3       -1.734973e+00
        78         3       -7.228817e-01
        79         3        2.655511e-01
        80         3        2.544255e-01
        81         3        2.294847e+00
        82         3       -1.785848e+00
        83         3        7.091790e-01
        84         3       -1.368847e+00
        85         3       -1.380004e+00
        86         3        2.382588e-02
        87         3        4.793255e-01
        88         3       -4.449534e-01
        89         3        1.245502e+00
        90         3       -4.979964e-01
        91         3        6.742187e-01
        92         3       -9.964218e-02
        93         3        7.317081e-01
        94         3       -8.508095e-02
        95         3       -4.556555e-01
        96         3       -1.275275e+00
        97         3        3.130315e-02
        98         3        1.377072e+00
        99         3        1.296911e-01
       100         3        3.453693e-01
         1         4        6.389764e-01
         2         4       -2.008857e-01
         3         4       -1.215756e+00
         4         4       -6.335713e-01
         5         4        3.772881e-01
         6         4       -8.623187e-01
         7         4       -1.910708e-01
         8         4       -8.654026e-02
         9         4       -2.695631e-01
        10         4        1.285331e+00
        11         4        5.875813e-01
        12         4        1.505076e+00
        13         4        2.564068e-01
        14         4        7.683117e-01
        15         4        3.227988e-01
        16         4        1.786781e+00
        17         4       -4.358192e-01
        18         4        1.799063e+00
        19         4       -9.269444e-01
        20         4        5.683693e-01
        21         4        1.682839e-01
        22         4        1.212590e-01
        23         4        1.446893e+00
        24         4        3.896883e-01
        25         4       -1.310516e+00
        26         4        2.154945e+00
        27         4       -3.342009e-01
        28         4       -1.168134e+00
        29         4        1.284867e+00
        30         4        1.281108e+00
        31         4        6.782812e-01
        32         4        2.910135e-01
        33         4       -4.423597e-01
        34         4       -1.466969e+00
        35         4       -9.574188e-01
        36         4       -4.691958e-01
        37         4       -2.719835e-01
        38         4        6.659969e-01
        39         4       -6.385564e-01
        40         4        1.353304e+00
        41         4       -1.693046e-01
        42         4        2.088493e-01
        43         4       -9.624464e-01
        44         4        8.507901e-02
        45         4        4.468644e-02
        46         4       -2.781167e-02
        47         4        5.099148e-01
        48         4       -4.349984e-01
        49         4        7.176349e-01
        50         4       -1.743675e+00
        51         4        3.238661e-01
        52         4       -5.753736e-01
        53         4       -8.438911e-01
        54         4       -8.957275e-01
        55         4        8.465087e-01
        56         4       -7.044008e-02
        57         4        2.003729e+00
        58         4       -6.707531e-01
        59         4        4.522669e-01
        60         4       -1.119778e+00
        61         4        4.339678e-01
        62         4        1.198223e+00
        63         4        1.894708e-01
        64         4        1.751977e+00
        65         4       -3.123815e-01
        66         4       -5.084293e-01
        67         4       -1.907581e-01
        68         4        1.161317e+00
        69         4        1.192866e+00
        70         4        9.871958e-01
        71         4        8.829440e-01
        72         4       -1.605713e+00
        73         4       -3.171414e-02
        74         4        1.292175e+00
        75         4        6.680860e-01
        76         4        1.959561e-01
        77         4        2.732058e-01
        78         4       -6.794420e-01
        79         4       -9.915877e-02
        80         4       -7.392092e-01
        81         4        2.342708e-01
        82         4       -2.246295e+00
        83         4       -2.166510e-01
        84         4       -1.080758e-01
        85         4       -5.180966e-01
        86         4       -1.219218e+00
        87         4        4.053487e-01
        88         4       -4.275036e-01
        89         4       -6.722572e-01
        90         4       -1.221851e+00
        91         4        3.924396e-02
        92         4       -2.171503e+00
        93         4        9.778347e-02
        94         4        7.682591e-01
        95         4        1.496430e-01
        96         4        1.612952e+00
        97         4       -1.378095e-01
        98         4       -1.200041e+00
        99         4        9.748813e-03
       100         4       -4.542872e-01
         1         5       -4.471459e-01
         2         5       -1.671239e+00
         3         5        9.663443e-01
         4         5        9.159057e-02
         5         5       -3.788998e-01
         6         5        1.178298e+00
         7         5        6.784342e-01
         8         5       -1.302501e-01
         9         5        8.626997e-01
        10         5        1.359393e+00
        11         5       -1.572342e+00
        12         5       -2.628513e-01
        13         5        5.233050e-02
        14         5       -3.642220e-01
        15         5        1.085991e+00
        16         5       -1.201775e+00
        17         5       -2.228010e-02
        18         5        5.855068e-01
        19         5        9.721495e-01
        20         5        1.571055e+00
        21         5       -1.591601e+00
        22         5        3.268301e-01
        23         5        9.249467e-01
        24         5       -4.420283e-01
        25         5        4.626135e-01
        26         5       -6.624367e-01
        27         5       -9.216486e-01
        28         5       -3.885098e-01
        29         5       -5.981469e-01
        30         5       -4.143206e-01
        31         5        4.793259e-01
        32         5       -3.305607e-01
        33         5       -7.777020e-01
        34         5        1.163230e+00
        35         5       -1.965627e-01
        36         5        3.051509e-01
        37         5        2.548709e-01
        38         5        7.740886e-01
        39         5       -4.471186e-01
        40         5       -1.405459e+00
        41         5        1.261296e-02
        42         5       -3.921164e-01
        43         5       -9.915935e-01
        44         5       -1.970781e-01
        45         5        1.236833e+00
        46         5        8.906217e-01
        47         5       -6.733689e-01
        48         5       -8.217030e-01
        49         5       -3.249292e+00
        50         5        6.226445e-01
        51         5       -1.525182e-01
        52         5        7.030169e-01
        53         5       -6.651292e-01
        54         5       -9.534637e-01
        55         5        8.910754e-02
        56         5        2.708063e-01
        57         5        3.251250e-01
        58         5       -1.053706e+00
        59         5       -9.038894e-01
        60         5        8.363883e-01
        61         5        1.473658e+00
        62         5        1.677165e-01
        63         5       -3.015052e-01
        64         5        2.867995e-01
        65         5       -6.182153e-01
        66         5        1.735756e+00
        67         5       -1.757972e-01
        68         5       -9.398513e-01
        69         5       -1.095345e+00
        70         5       -4.047548e-01
        71         5        6.062305e-01
        72         5        1.334069e+00
        73         5       -7.573394e-03
        74         5       -3.036115e+00
        75         5        4.115491e-01
        76         5        1.496417e+00
        77         5        5.284986e-01
        78         5       -2.205930e-01
        79         5       -1.125878e+00
        80         5       -5.346105e-01
        81         5        8.871956e-02
        82         5       -4.778772e-01
        83         5        1.577400e+00
        84         5       -1.334485e+00
        85         5        7.915341e-01
        86         5       -1.264608e-01
        87         5        6.831445e-01
        88         5        2.156441e-01
        89         5        1.605863e-01
        90         5       -1.940431e-02
        91         5        3.706206e-01
        92         5       -4.951896e-01
        93         5        5.814072e-01
        94         5        5.052743e-01
        95         5        2.419707e+00
        96         5        1.246822e+00
        97         5        1.097121e+00
        98         5       -1.201227e+00
        99         5       -1.386113e+00
       100         5       -1.119790e-01
;

param theta:=
    1        5.932608e-01
    2        2.276603e+00
    3        8.093798e-02
    4       -5.026388e-01
    5       -1.565542e-01
;
param X_true:=
    1       -4.207546e+00
    2       -3.287699e+00
    3        1.055402e+00
    4        1.477867e+00
    5        2.992728e-01
    6        2.819111e+00
    7        2.405733e+00
    8        9.126802e-01
    9        2.537454e-01
   10       -3.002658e+00
   11        1.329567e-02
   12       -4.454712e-01
   13        4.592509e-01
   14        4.311706e+00
   15       -1.779361e+00
   16        7.588409e-01
   17       -2.172663e+00
   18       -2.743246e+00
   19        4.220645e+00
   20       -8.779410e-01
   21        2.652894e-01
   22       -2.432357e+00
   23       -4.272546e+00
   24        1.368837e+00
   25        3.158913e-01
   26        1.204132e+00
   27        2.885919e+00
   28        4.200401e+00
   29        1.726227e+00
   30        2.087111e+00
   31       -9.127091e-01
   32        7.580489e-01
   33       -1.099439e+00
   34       -1.679743e-02
   35       -5.541125e-01
   36        1.884272e+00
   37       -3.390674e-01
   38        1.427966e+00
   39        6.768839e-01
   40       -2.821418e+00
   41       -2.370455e+00
   42        2.150131e+00
   43       -2.191135e-01
   44       -3.973447e+00
   45        2.814758e-01
   46        2.137148e+00
   47       -1.139282e+00
   48       -2.196618e-01
   49       -1.616272e+00
   50       -4.239420e-01
   51       -9.481470e-02
   52       -1.624788e+00
   53        1.290358e+00
   54        2.025648e+00
   55       -1.105517e+00
   56        8.876920e-01
   57       -2.995000e+00
   58        2.775877e+00
   59       -1.654409e+00
   60        2.888693e+00
   61       -3.069485e+00
   62        7.046819e-01
   63        2.080290e+00
   64       -9.360261e-02
   65        3.495471e+00
   66        2.450022e+00
   67        1.166380e+00
   68       -3.016414e+00
   69       -3.069818e-01
   70        2.789019e+00
   71        2.533034e+00
   72       -3.348418e-01
   73       -3.513632e+00
   74       -8.282110e-02
   75       -1.341319e+00
   76        8.957851e-01
   77        2.235953e+00
   78        1.500764e+00
   79        1.885324e+00
   80        9.476883e-02
   81        3.191192e-01
   82       -8.826884e-01
   83       -1.997588e+00
   84       -9.017901e-01
   85        2.405436e+00
   86        2.453501e+00
   87       -2.130236e+00
   88        9.044028e-01
   89        1.980410e+00
   90        4.246095e+00
   91       -4.789728e-01
   92        2.056567e+00
   93       -4.473808e-01
   94        3.828244e+00
   95        2.750606e-01
   96       -1.634259e+00
   97        6.279636e+00
   98       -1.234576e-01
   99       -1.773825e+00
  100        1.770506e+00
;
param X:=
    1       -4.207546e+00
    2        1.157688e+00
    3       -4.669408e-01
    4        1.477867e+00
    5       -4.298885e-01
    6       -1.768590e+00
    7        1.934148e-01
    8        1.161506e-01
    9        1.907789e+00
   10       -3.002658e+00
   11       -1.374132e+00
   12       -4.454712e-01
   13        4.592509e-01
   14       -1.630676e+00
   15       -1.779361e+00
   16       -2.366607e-02
   17        1.295629e+00
   18        8.510993e-01
   19        4.220645e+00
   20       -8.779410e-01
   21        2.652894e-01
   22       -2.432357e+00
   23       -1.356396e+00
   24        1.368837e+00
   25       -9.150163e-01
   26       -1.182642e-02
   27       -1.144800e-01
   28        2.039635e+00
   29        1.726227e+00
   30       -1.722527e-01
   31       -9.127091e-01
   32        2.830439e-02
   33       -1.099439e+00
   34       -1.783687e+00
   35       -5.541125e-01
   36       -4.489197e-01
   37       -1.645894e+00
   38        1.427966e+00
   39        8.733502e-01
   40        5.247543e-01
   41       -2.370455e+00
   42        2.150131e+00
   43       -2.191135e-01
   44       -1.673803e+00
   45        9.814980e-01
   46        2.137148e+00
   47       -1.139282e+00
   48       -1.316080e+00
   49       -1.091755e+00
   50       -4.239420e-01
   51       -9.006240e-01
   52       -4.297527e-01
   53        1.259227e+00
   54        1.453794e+00
   55       -1.105517e+00
   56       -1.589639e+00
   57       -1.427719e+00
   58        1.261738e+00
   59       -1.654409e+00
   60        9.242732e-01
   61       -1.056659e-01
   62        3.063821e-01
   63        5.506334e-01
   64        2.507146e+00
   65        3.495471e+00
   66        1.235151e+00
   67        1.166380e+00
   68        4.601153e-02
   69       -3.069818e-01
   70        2.789019e+00
   71        2.533034e+00
   72       -3.348418e-01
   73       -3.513632e+00
   74       -8.282110e-02
   75        1.290174e+00
   76        8.957851e-01
   77        8.544810e-01
   78        4.648139e-01
   79        2.496808e-01
   80        8.422749e-01
   81        3.133785e-01
   82       -8.826884e-01
   83       -1.997588e+00
   84        5.035900e-01
   85        6.395218e-01
   86        2.453501e+00
   87       -2.130236e+00
   88        4.585768e-01
   89        5.459111e-01
   90        4.246095e+00
   91       -1.138058e+00
   92       -6.584695e-01
   93        1.708914e+00
   94       -6.875253e-01
   95       -7.700860e-01
   96       -1.455917e-01
   97        6.279636e+00
   98       -1.335594e+00
   99       -2.044770e-01
  100        1.770506e+00
;
param outliervec:=
    1    0
    2    1
    3    1
    4    0
    5    1
    6    1
    7    1
    8    1
    9    1
   10    0
   11    1
   12    0
   13    0
   14    1
   15    0
   16    1
   17    1
   18    1
   19    0
   20    0
   21    0
   22    0
   23    1
   24    0
   25    1
   26    1
   27    1
   28    1
   29    0
   30    1
   31    0
   32    1
   33    0
   34    1
   35    0
   36    1
   37    1
   38    0
   39    1
   40    1
   41    0
   42    0
   43    0
   44    1
   45    1
   46    0
   47    0
   48    1
   49    1
   50    0
   51    1
   52    1
   53    1
   54    1
   55    0
   56    1
   57    1
   58    1
   59    0
   60    1
   61    1
   62    1
   63    1
   64    1
   65    0
   66    1
   67    0
   68    1
   69    0
   70    0
   71    0
   72    0
   73    0
   74    0
   75    1
   76    0
   77    1
   78    1
   79    1
   80    1
   81    1
   82    0
   83    0
   84    1
   85    1
   86    0
   87    0
   88    1
   89    1
   90    0
   91    1
   92    1
   93    1
   94    1
   95    1
   96    1
   97    0
   98    1
   99    1
  100    0
;